10J3M/DAT/10J3MNTA-4.dat
10 3
24.1671 584.0487
17.1437 293.9064
19.6957 387.9206
24.6149 605.8933
22.2413 494.6754
24.7919 614.6383
28.1068 789.9922
22.5087 506.6416
28.6797 822.5252
30.7658 946.5344
1511.694