10J3M/SOL/10J3MNTA-4.sol
solution status: optimal solution found
objective value:                     64.0812954167929
x#1#1                                               1 	(obj:0)
x#2#1                              0.0801686910259152 	(obj:0)
x#2#2                               0.919831308974085 	(obj:0)
x#3#2                               0.215702857361613 	(obj:0)
x#3#3                               0.784297142638387 	(obj:0)
x#4#2                                               1 	(obj:0)
x#5#3                                               1 	(obj:0)
x#6#1                               0.646626818777582 	(obj:0)
x#6#3                               0.353373181222418 	(obj:0)
x#7#2                               0.372681286628789 	(obj:0)
x#7#3                               0.627318713371211 	(obj:0)
x#8#1                                               1 	(obj:0)
x#9#2                               0.312896796353474 	(obj:0)
z                                    64.0812954167929 	(obj:1)
